param sigma
: 1 2 :=
1	1e-05	0.99999
2	0.1	0.9
3	0.2	0.8
4	0.3	0.7
5	0.4	0.6
6	0.5	0.5
7	0.6	0.4
8	0.7	0.3
9	0.8	0.2
10	0.9	0.1
11	0.99999	1e-05
;

set O := 1 26;
set R := 2 3 4 5 6 7 8 9 10 11 12 13 14 15 16 17 18 19 20 21 22 23 24 25;
set S := 1 26;
set K := 1 2 3 4 5;
param b := 12;
param theta := 20.0;
param peso_vacio := 3500;
param alpha :=
0 0
1 0
2 0
3 0
4 0
;
param beta :=
0 0.2
1 -0.1
2 0
3 0
4 0
;
param gamma :=
0 16.4
1 2.2
2 2.2
3 0.6
4 0.4
;
param delta :=
0 0
1 0
2 0
3 0
4 0
;
param epsilon :=
0 0.3
1 0
2 0
3 0
4 0
;
param zeta :=
0 2.4
1 2.5
2 1.3
3 4.5
4 3.3
;
param hta :=
0 1
1 1
2 1
3 1
4 1
;
param dm :=
1 0
2 3
3 2
4 1
5 3
6 2
7 1
8 3
9 2
10 1
11 3
12 2
13 1
14 3
15 2
16 1
17 3
18 2
19 1
20 3
21 2
22 1
23 3
24 2
25 1
26 0
;
param d :=
1 1 0.00
1 2 1.41
1 3 2.10
1 4 3.00
1 5 1.41
1 6 2.10
1 7 3.00
1 8 1.41
1 9 2.10
1 10 3.00
1 11 1.41
1 12 2.10
1 13 3.00
1 14 1.41
1 15 2.10
1 16 3.00
1 17 1.41
1 18 2.10
1 19 3.00
1 20 1.41
1 21 2.10
1 22 3.00
1 23 1.41
1 24 2.10
1 25 3.00
1 26 4.24
2 1 1.41
2 2 0.00
2 3 1.07
2 4 2.24
2 5 1.08
2 6 0.86
2 7 1.59
2 8 2.00
2 9 1.91
2 10 2.24
2 11 2.61
2 12 2.86
2 13 3.32
2 14 2.83
2 15 3.41
2 16 4.12
2 17 2.61
2 18 3.47
2 19 4.41
2 20 2.00
2 21 3.02
2 22 4.12
2 23 1.08
2 24 2.15
2 25 3.32
2 26 2.83
3 1 2.10
3 2 1.07
3 3 0.00
3 4 1.18
3 5 2.15
3 6 1.60
3 7 1.50
3 8 3.02
3 9 2.96
3 10 3.10
3 11 3.47
3 12 3.87
3 13 4.38
3 14 3.41
3 15 4.19
3 16 5.04
3 17 2.86
3 18 3.87
3 19 4.95
3 20 1.91
3 21 2.96
3 22 4.14
3 23 0.86
3 24 1.60
3 25 2.75
3 26 2.58
4 1 3.00
4 2 2.24
4 3 1.18
4 4 0.00
4 5 3.32
4 6 2.75
4 7 2.30
4 8 4.12
4 9 4.14
4 10 4.24
4 11 4.41
4 12 4.95
4 13 5.54
4 14 4.12
4 15 5.04
4 16 6.00
4 17 3.32
4 18 4.38
4 19 5.54
4 20 2.24
4 21 3.10
4 22 4.24
4 23 1.59
4 24 1.50
4 25 2.30
4 26 3.00
5 1 1.41
5 2 1.08
5 3 2.15
5 4 3.32
5 5 0.00
5 6 1.07
5 7 2.24
5 8 1.08
5 9 0.86
5 10 1.59
5 11 2.00
5 12 1.91
5 13 2.24
5 14 2.61
5 15 2.86
5 16 3.32
5 17 2.83
5 18 3.41
5 19 4.12
5 20 2.61
5 21 3.47
5 22 4.41
5 23 2.00
5 24 3.02
5 25 4.12
5 26 3.39
6 1 2.10
6 2 0.86
6 3 1.60
6 4 2.75
6 5 1.07
6 6 0.00
6 7 1.18
6 8 2.15
6 9 1.60
6 10 1.50
6 11 3.02
6 12 2.96
6 13 3.10
6 14 3.47
6 15 3.87
6 16 4.38
6 17 3.41
6 18 4.19
6 19 5.04
6 20 2.86
6 21 3.87
6 22 4.95
6 23 1.91
6 24 2.96
6 25 4.14
6 26 2.33
7 1 3.00
7 2 1.59
7 3 1.50
7 4 2.30
7 5 2.24
7 6 1.18
7 7 0.00
7 8 3.32
7 9 2.75
7 10 2.30
7 11 4.12
7 12 4.14
7 13 4.24
7 14 4.41
7 15 4.95
7 16 5.54
7 17 4.12
7 18 5.04
7 19 6.00
7 20 3.32
7 21 4.38
7 22 5.54
7 23 2.24
7 24 3.10
7 25 4.24
7 26 1.24
8 1 1.41
8 2 2.00
8 3 3.02
8 4 4.12
8 5 1.08
8 6 2.15
8 7 3.32
8 8 0.00
8 9 1.07
8 10 2.24
8 11 1.08
8 12 0.86
8 13 1.59
8 14 2.00
8 15 1.91
8 16 2.24
8 17 2.61
8 18 2.86
8 19 3.32
8 20 2.83
8 21 3.41
8 22 4.12
8 23 2.61
8 24 3.47
8 25 4.41
8 26 4.47
9 1 2.10
9 2 1.91
9 3 2.96
9 4 4.14
9 5 0.86
9 6 1.60
9 7 2.75
9 8 1.07
9 9 0.00
9 10 1.18
9 11 2.15
9 12 1.60
9 13 1.50
9 14 3.02
9 15 2.96
9 16 3.10
9 17 3.47
9 18 3.87
9 19 4.38
9 20 3.41
9 21 4.19
9 22 5.04
9 23 2.86
9 24 3.87
9 25 4.95
9 26 3.76
10 1 3.00
10 2 2.24
10 3 3.10
10 4 4.24
10 5 1.59
10 6 1.50
10 7 2.30
10 8 2.24
10 9 1.18
10 10 0.00
10 11 3.32
10 12 2.75
10 13 2.30
10 14 4.12
10 15 4.14
10 16 4.24
10 17 4.41
10 18 4.95
10 19 5.54
10 20 4.12
10 21 5.04
10 22 6.00
10 23 3.32
10 24 4.38
10 25 5.54
10 26 3.00
11 1 1.41
11 2 2.61
11 3 3.47
11 4 4.41
11 5 2.00
11 6 3.02
11 7 4.12
11 8 1.08
11 9 2.15
11 10 3.32
11 11 0.00
11 12 1.07
11 13 2.24
11 14 1.08
11 15 0.86
11 16 1.59
11 17 2.00
11 18 1.91
11 19 2.24
11 20 2.61
11 21 2.86
11 22 3.32
11 23 2.83
11 24 3.41
11 25 4.12
11 26 5.34
12 1 2.10
12 2 2.86
12 3 3.87
12 4 4.95
12 5 1.91
12 6 2.96
12 7 4.14
12 8 0.86
12 9 1.60
12 10 2.75
12 11 1.07
12 12 0.00
12 13 1.18
12 14 2.15
12 15 1.60
12 16 1.50
12 17 3.02
12 18 2.96
12 19 3.10
12 20 3.47
12 21 3.87
12 22 4.38
12 23 3.41
12 24 4.19
12 25 5.04
12 26 5.26
13 1 3.00
13 2 3.32
13 3 4.38
13 4 5.54
13 5 2.24
13 6 3.10
13 7 4.24
13 8 1.59
13 9 1.50
13 10 2.30
13 11 2.24
13 12 1.18
13 13 0.00
13 14 3.32
13 15 2.75
13 16 2.30
13 17 4.12
13 18 4.14
13 19 4.24
13 20 4.41
13 21 4.95
13 22 5.54
13 23 4.12
13 24 5.04
13 25 6.00
13 26 5.20
14 1 1.41
14 2 2.83
14 3 3.41
14 4 4.12
14 5 2.61
14 6 3.47
14 7 4.41
14 8 2.00
14 9 3.02
14 10 4.12
14 11 1.08
14 12 2.15
14 13 3.32
14 14 0.00
14 15 1.07
14 16 2.24
14 17 1.08
14 18 0.86
14 19 1.59
14 20 2.00
14 21 1.91
14 22 2.24
14 23 2.61
14 24 2.86
14 25 3.32
14 26 5.66
15 1 2.10
15 2 3.41
15 3 4.19
15 4 5.04
15 5 2.86
15 6 3.87
15 7 4.95
15 8 1.91
15 9 2.96
15 10 4.14
15 11 0.86
15 12 1.60
15 13 2.75
15 14 1.07
15 15 0.00
15 16 1.18
15 17 2.15
15 18 1.60
15 19 1.50
15 20 3.02
15 21 2.96
15 22 3.10
15 23 3.47
15 24 3.87
15 25 4.38
15 26 6.18
16 1 3.00
16 2 4.12
16 3 5.04
16 4 6.00
16 5 3.32
16 6 4.38
16 7 5.54
16 8 2.24
16 9 3.10
16 10 4.24
16 11 1.59
16 12 1.50
16 13 2.30
16 14 2.24
16 15 1.18
16 16 0.00
16 17 3.32
16 18 2.75
16 19 2.30
16 20 4.12
16 21 4.14
16 22 4.24
16 23 4.41
16 24 4.95
16 25 5.54
16 26 6.71
17 1 1.41
17 2 2.61
17 3 2.86
17 4 3.32
17 5 2.83
17 6 3.41
17 7 4.12
17 8 2.61
17 9 3.47
17 10 4.41
17 11 2.00
17 12 3.02
17 13 4.12
17 14 1.08
17 15 2.15
17 16 3.32
17 17 0.00
17 18 1.07
17 19 2.24
17 20 1.08
17 21 0.86
17 22 1.59
17 23 2.00
17 24 1.91
17 25 2.24
17 26 5.34
18 1 2.10
18 2 3.47
18 3 3.87
18 4 4.38
18 5 3.41
18 6 4.19
18 7 5.04
18 8 2.86
18 9 3.87
18 10 4.95
18 11 1.91
18 12 2.96
18 13 4.14
18 14 0.86
18 15 1.60
18 16 2.75
18 17 1.07
18 18 0.00
18 19 1.18
18 20 2.15
18 21 1.60
18 22 1.50
18 23 3.02
18 24 2.96
18 25 3.10
18 26 6.27
19 1 3.00
19 2 4.41
19 3 4.95
19 4 5.54
19 5 4.12
19 6 5.04
19 7 6.00
19 8 3.32
19 9 4.38
19 10 5.54
19 11 2.24
19 12 3.10
19 13 4.24
19 14 1.59
19 15 1.50
19 16 2.30
19 17 2.24
19 18 1.18
19 19 0.00
19 20 3.32
19 21 2.75
19 22 2.30
19 23 4.12
19 24 4.14
19 25 4.24
19 26 7.24
20 1 1.41
20 2 2.00
20 3 1.91
20 4 2.24
20 5 2.61
20 6 2.86
20 7 3.32
20 8 2.83
20 9 3.41
20 10 4.12
20 11 2.61
20 12 3.47
20 13 4.41
20 14 2.00
20 15 3.02
20 16 4.12
20 17 1.08
20 18 2.15
20 19 3.32
20 20 0.00
20 21 1.07
20 22 2.24
20 23 1.08
20 24 0.86
20 25 1.59
20 26 4.47
21 1 2.10
21 2 3.02
21 3 2.96
21 4 3.10
21 5 3.47
21 6 3.87
21 7 4.38
21 8 3.41
21 9 4.19
21 10 5.04
21 11 2.86
21 12 3.87
21 13 4.95
21 14 1.91
21 15 2.96
21 16 4.14
21 17 0.86
21 18 1.60
21 19 2.75
21 20 1.07
21 21 0.00
21 22 1.18
21 23 2.15
21 24 1.60
21 25 1.50
21 26 5.54
22 1 3.00
22 2 4.12
22 3 4.14
22 4 4.24
22 5 4.41
22 6 4.95
22 7 5.54
22 8 4.12
22 9 5.04
22 10 6.00
22 11 3.32
22 12 4.38
22 13 5.54
22 14 2.24
22 15 3.10
22 16 4.24
22 17 1.59
22 18 1.50
22 19 2.30
22 20 2.24
22 21 1.18
22 22 0.00
22 23 3.32
22 24 2.75
22 25 2.30
22 26 6.71
23 1 1.41
23 2 1.08
23 3 0.86
23 4 1.59
23 5 2.00
23 6 1.91
23 7 2.24
23 8 2.61
23 9 2.86
23 10 3.32
23 11 2.83
23 12 3.41
23 13 4.12
23 14 2.61
23 15 3.47
23 16 4.41
23 17 2.00
23 18 3.02
23 19 4.12
23 20 1.08
23 21 2.15
23 22 3.32
23 23 0.00
23 24 1.07
23 25 2.24
23 26 3.39
24 1 2.10
24 2 2.15
24 3 1.60
24 4 1.50
24 5 3.02
24 6 2.96
24 7 3.10
24 8 3.47
24 9 3.87
24 10 4.38
24 11 3.41
24 12 4.19
24 13 5.04
24 14 2.86
24 15 3.87
24 16 4.95
24 17 1.91
24 18 2.96
24 19 4.14
24 20 0.86
24 21 1.60
24 22 2.75
24 23 1.07
24 24 0.00
24 25 1.18
24 26 4.13
25 1 3.00
25 2 3.32
25 3 2.75
25 4 2.30
25 5 4.12
25 6 4.14
25 7 4.24
25 8 4.41
25 9 4.95
25 10 5.54
25 11 4.12
25 12 5.04
25 13 6.00
25 14 3.32
25 15 4.38
25 16 5.54
25 17 2.24
25 18 3.10
25 19 4.24
25 20 1.59
25 21 1.50
25 22 2.30
25 23 2.24
25 24 1.18
25 25 0.00
25 26 5.20
26 1 4.24
26 2 2.83
26 3 2.58
26 4 3.00
26 5 3.39
26 6 2.33
26 7 1.24
26 8 4.47
26 9 3.76
26 10 3.00
26 11 5.34
26 12 5.26
26 13 5.20
26 14 5.66
26 15 6.18
26 16 6.71
26 17 5.34
26 18 6.27
26 19 7.24
26 20 4.47
26 21 5.54
26 22 6.71
26 23 3.39
26 24 4.13
26 25 5.20
26 26 0.00
;
param v :=
1 1 0
1 2 35
1 3 46
1 4 36
1 5 59
1 6 46
1 7 58
1 8 47
1 9 47
1 10 55
1 11 56
1 12 54
1 13 52
1 14 39
1 15 48
1 16 44
1 17 52
1 18 48
1 19 60
1 20 46
1 21 54
1 22 38
1 23 49
1 24 56
1 25 48
1 26 39
2 1 45
2 2 0
2 3 53
2 4 51
2 5 39
2 6 45
2 7 43
2 8 42
2 9 54
2 10 43
2 11 58
2 12 49
2 13 53
2 14 57
2 15 40
2 16 35
2 17 41
2 18 49
2 19 60
2 20 48
2 21 41
2 22 58
2 23 45
2 24 56
2 25 43
2 26 45
3 1 45
3 2 39
3 3 0
3 4 50
3 5 59
3 6 35
3 7 57
3 8 58
3 9 58
3 10 42
3 11 41
3 12 56
3 13 39
3 14 53
3 15 41
3 16 50
3 17 60
3 18 60
3 19 44
3 20 41
3 21 45
3 22 42
3 23 56
3 24 37
3 25 52
3 26 50
4 1 44
4 2 36
4 3 45
4 4 0
4 5 39
4 6 52
4 7 38
4 8 49
4 9 45
4 10 57
4 11 54
4 12 59
4 13 55
4 14 47
4 15 37
4 16 59
4 17 47
4 18 59
4 19 49
4 20 35
4 21 36
4 22 46
4 23 57
4 24 59
4 25 44
4 26 41
5 1 49
5 2 55
5 3 46
5 4 48
5 5 0
5 6 60
5 7 43
5 8 51
5 9 56
5 10 38
5 11 51
5 12 35
5 13 44
5 14 36
5 15 45
5 16 46
5 17 60
5 18 57
5 19 42
5 20 39
5 21 46
5 22 39
5 23 43
5 24 41
5 25 51
5 26 41
6 1 40
6 2 56
6 3 53
6 4 40
6 5 53
6 6 0
6 7 36
6 8 37
6 9 45
6 10 50
6 11 60
6 12 55
6 13 46
6 14 57
6 15 51
6 16 58
6 17 40
6 18 36
6 19 46
6 20 47
6 21 46
6 22 58
6 23 58
6 24 43
6 25 57
6 26 38
7 1 50
7 2 38
7 3 53
7 4 43
7 5 54
7 6 43
7 7 0
7 8 38
7 9 41
7 10 50
7 11 56
7 12 45
7 13 42
7 14 43
7 15 41
7 16 60
7 17 49
7 18 35
7 19 60
7 20 57
7 21 39
7 22 55
7 23 58
7 24 53
7 25 44
7 26 50
8 1 51
8 2 52
8 3 35
8 4 59
8 5 45
8 6 49
8 7 44
8 8 0
8 9 46
8 10 39
8 11 50
8 12 39
8 13 57
8 14 54
8 15 58
8 16 59
8 17 48
8 18 42
8 19 58
8 20 58
8 21 38
8 22 59
8 23 46
8 24 59
8 25 56
8 26 56
9 1 44
9 2 60
9 3 49
9 4 45
9 5 46
9 6 58
9 7 50
9 8 41
9 9 0
9 10 44
9 11 36
9 12 42
9 13 49
9 14 40
9 15 36
9 16 53
9 17 58
9 18 58
9 19 36
9 20 38
9 21 38
9 22 47
9 23 57
9 24 39
9 25 54
9 26 45
10 1 36
10 2 50
10 3 50
10 4 51
10 5 44
10 6 46
10 7 44
10 8 50
10 9 58
10 10 0
10 11 60
10 12 44
10 13 51
10 14 59
10 15 44
10 16 60
10 17 37
10 18 46
10 19 54
10 20 45
10 21 40
10 22 35
10 23 44
10 24 52
10 25 48
10 26 46
11 1 53
11 2 56
11 3 60
11 4 47
11 5 55
11 6 43
11 7 60
11 8 45
11 9 40
11 10 38
11 11 0
11 12 38
11 13 47
11 14 42
11 15 36
11 16 47
11 17 42
11 18 45
11 19 37
11 20 52
11 21 46
11 22 37
11 23 37
11 24 49
11 25 46
11 26 46
12 1 47
12 2 45
12 3 41
12 4 56
12 5 51
12 6 37
12 7 36
12 8 49
12 9 47
12 10 54
12 11 46
12 12 0
12 13 41
12 14 41
12 15 39
12 16 39
12 17 36
12 18 49
12 19 36
12 20 40
12 21 37
12 22 47
12 23 47
12 24 59
12 25 35
12 26 52
13 1 42
13 2 46
13 3 36
13 4 56
13 5 54
13 6 39
13 7 60
13 8 58
13 9 47
13 10 56
13 11 37
13 12 59
13 13 0
13 14 46
13 15 53
13 16 39
13 17 39
13 18 60
13 19 41
13 20 52
13 21 40
13 22 37
13 23 52
13 24 44
13 25 57
13 26 54
14 1 57
14 2 59
14 3 58
14 4 44
14 5 56
14 6 57
14 7 60
14 8 59
14 9 39
14 10 39
14 11 48
14 12 39
14 13 54
14 14 0
14 15 52
14 16 51
14 17 46
14 18 37
14 19 39
14 20 60
14 21 52
14 22 52
14 23 44
14 24 52
14 25 50
14 26 57
15 1 39
15 2 54
15 3 53
15 4 37
15 5 48
15 6 48
15 7 55
15 8 58
15 9 47
15 10 50
15 11 51
15 12 44
15 13 59
15 14 52
15 15 0
15 16 59
15 17 48
15 18 53
15 19 53
15 20 60
15 21 59
15 22 52
15 23 45
15 24 35
15 25 50
15 26 51
16 1 42
16 2 57
16 3 51
16 4 60
16 5 36
16 6 40
16 7 44
16 8 56
16 9 56
16 10 50
16 11 43
16 12 56
16 13 37
16 14 35
16 15 41
16 16 0
16 17 56
16 18 48
16 19 59
16 20 53
16 21 50
16 22 55
16 23 59
16 24 60
16 25 46
16 26 40
17 1 58
17 2 46
17 3 54
17 4 55
17 5 36
17 6 45
17 7 46
17 8 47
17 9 41
17 10 50
17 11 41
17 12 42
17 13 54
17 14 48
17 15 45
17 16 35
17 17 0
17 18 35
17 19 40
17 20 49
17 21 35
17 22 44
17 23 40
17 24 50
17 25 55
17 26 35
18 1 52
18 2 50
18 3 59
18 4 51
18 5 52
18 6 36
18 7 54
18 8 51
18 9 58
18 10 42
18 11 46
18 12 58
18 13 52
18 14 55
18 15 42
18 16 36
18 17 50
18 18 0
18 19 36
18 20 35
18 21 55
18 22 57
18 23 47
18 24 41
18 25 47
18 26 38
19 1 42
19 2 40
19 3 53
19 4 35
19 5 35
19 6 35
19 7 40
19 8 49
19 9 54
19 10 45
19 11 54
19 12 36
19 13 40
19 14 41
19 15 38
19 16 60
19 17 46
19 18 40
19 19 0
19 20 52
19 21 43
19 22 53
19 23 56
19 24 39
19 25 38
19 26 56
20 1 53
20 2 46
20 3 55
20 4 41
20 5 44
20 6 60
20 7 54
20 8 46
20 9 53
20 10 58
20 11 42
20 12 38
20 13 55
20 14 58
20 15 38
20 16 51
20 17 41
20 18 38
20 19 54
20 20 0
20 21 55
20 22 42
20 23 49
20 24 52
20 25 38
20 26 58
21 1 57
21 2 44
21 3 47
21 4 41
21 5 56
21 6 42
21 7 51
21 8 44
21 9 60
21 10 46
21 11 41
21 12 47
21 13 59
21 14 46
21 15 45
21 16 55
21 17 50
21 18 39
21 19 38
21 20 55
21 21 0
21 22 50
21 23 52
21 24 55
21 25 48
21 26 38
22 1 36
22 2 47
22 3 44
22 4 47
22 5 40
22 6 48
22 7 56
22 8 49
22 9 40
22 10 39
22 11 50
22 12 48
22 13 55
22 14 55
22 15 42
22 16 44
22 17 37
22 18 50
22 19 48
22 20 41
22 21 51
22 22 0
22 23 49
22 24 49
22 25 57
22 26 37
23 1 41
23 2 59
23 3 60
23 4 38
23 5 55
23 6 55
23 7 48
23 8 52
23 9 45
23 10 60
23 11 59
23 12 58
23 13 36
23 14 58
23 15 46
23 16 51
23 17 35
23 18 39
23 19 56
23 20 38
23 21 49
23 22 35
23 23 0
23 24 47
23 25 43
23 26 60
24 1 50
24 2 46
24 3 52
24 4 55
24 5 59
24 6 39
24 7 43
24 8 39
24 9 60
24 10 44
24 11 58
24 12 57
24 13 57
24 14 39
24 15 58
24 16 55
24 17 36
24 18 52
24 19 54
24 20 38
24 21 50
24 22 42
24 23 49
24 24 0
24 25 51
24 26 38
25 1 41
25 2 46
25 3 54
25 4 52
25 5 40
25 6 46
25 7 52
25 8 52
25 9 35
25 10 55
25 11 54
25 12 38
25 13 52
25 14 47
25 15 42
25 16 39
25 17 44
25 18 57
25 19 36
25 20 43
25 21 50
25 22 38
25 23 41
25 24 49
25 25 0
25 26 36
26 1 46
26 2 55
26 3 58
26 4 55
26 5 52
26 6 35
26 7 40
26 8 52
26 9 43
26 10 37
26 11 47
26 12 55
26 13 38
26 14 41
26 15 49
26 16 56
26 17 58
26 18 40
26 19 55
26 20 56
26 21 57
26 22 37
26 23 45
26 24 48
26 25 52
26 26 0
;
param Rinit :=
1 1 0
1 2 0
1 3 0
1 4 0
1 5 0
26 1 0
26 2 0
26 3 0
26 4 0
26 5 0
;
param f :=
1 1
2 2
3 3
4 4
;